CMPL model generation - running

CMPL version: 1.11.0
Authors: Thomas Schleiff, Mike Steglich
Distributed under the GPLv3 

create model instance ...
write model instance ...
CMPL model generation - finished

Solver - running


Welcome to IBM(R) ILOG(R) CPLEX(R) Interactive Optimizer 12.7.1.0
  with Simplex, Mixed Integer & Barrier Optimizers
5725-A06 5725-A29 5724-Y48 5724-Y49 5724-Y54 5724-Y55 5655-Y21
Copyright IBM Corp. 1988, 2017.  All Rights Reserved.

Type 'help' for a list of available commands.
Type 'help' followed by a command name for more
information on commands.

CPLEX> Specified objective sense: MINIMIZE
Selected objective  name:  line[1]
Selected RHS        name:  RHS
Selected bound      name:  BOUND
Problem '/tmp/cmpl.T24501.mps' read.
Read time = 0.12 sec. (8.18 ticks)
CPLEX> CPXPARAM_Read_APIEncoding                        "UTF-8"
Tried aggregator 3 times.
MIP Presolve eliminated 19113 rows and 30465 columns.
MIP Presolve modified 340 coefficients.
Aggregator did 722 substitutions.
Reduced MIP has 2520 rows, 3406 columns, and 9926 nonzeros.
Reduced MIP has 3238 binaries, 0 generals, 0 SOSs, and 0 indicators.
Presolve time = 0.11 sec. (42.14 ticks)
Found incumbent of value 1117.351804 after 0.18 sec. (67.99 ticks)
Probing fixed 14 vars, tightened 0 bounds.
Probing time = 0.02 sec. (4.49 ticks)
Tried aggregator 1 time.
MIP Presolve eliminated 0 rows and 14 columns.
MIP Presolve modified 90 coefficients.
Reduced MIP has 2520 rows, 3392 columns, and 9898 nonzeros.
Reduced MIP has 3392 binaries, 0 generals, 0 SOSs, and 0 indicators.
Presolve time = 0.01 sec. (8.43 ticks)
Probing time = 0.01 sec. (2.71 ticks)
Clique table members: 6060.
MIP emphasis: balance optimality and feasibility.
MIP search method: dynamic search.
Parallel mode: none, using 1 thread.
Root relaxation solution time = 0.01 sec. (6.20 ticks)

        Nodes                                         Cuts/
   Node  Left     Objective  IInf  Best Integer    Best Bound    ItCnt     Gap

*     0+    0                         1117.3518      -32.2296           102.88%
      0     0      365.0679     4     1117.3518      365.0679      286   67.33%
*     0+    0                          367.0930      365.0679             0.55%
*     0+    0                          365.1822      365.0679             0.03%
      0     0      365.1026     1      365.1822      Cuts: 12      291    0.02%
*     0+    0                          365.1311      365.1026             0.01%

GUB cover cuts applied:  1
Cover cuts applied:  7
Gomory fractional cuts applied:  4

Root node processing (before b&c):
  Real time             =    0.30 sec. (114.53 ticks)
Sequential b&c:
  Real time             =    0.00 sec. (0.00 ticks)
                          ------------
Total (root+branch&cut) =    0.30 sec. (114.53 ticks)

Solution pool: 4 solutions saved.

MIP - Integer optimal, tolerance (0.0001/1e-06):  Objective =  3.6513112900e+02
Current MIP best bound =  3.6510255750e+02 (gap = 0.0285715, 0.01%)
Solution time =    0.30 sec.  Iterations = 291  Nodes = 0 (1)
Deterministic time = 114.63 ticks  (382.71 ticks/sec)

CPLEX> Incumbent solution written to file '/tmp/cmpl.T24501.gsol'.
CPLEX> 
CMPL: Time used for model generation: 2 seconds
CMPL: Time used for solving the model: 1 seconds


Solution written to ASCII file: results/output_generated_conf_0.7/2017-08-07-4/fair-nonlinear.sol

Solver - finished
